PARAMETER_FILE = even/LKH_uncomplete_graph/x5/de/par/random145.par
PROBLEM_FILE = even/LKH_uncomplete_graph/x5/de/mat/random145.tsp
Successes/Runs = 0/10
Cost.min = 900, Cost.avg = 900.00, Cost.max = 900
Gap.min = 0.0000%, Gap.avg = 0.0000%, Gap.max = 0.0000%
Trials.min = 1000, Trials.avg = 1000.0, Trials.max = 1000
Time.min = 0.68 sec., Time.avg = 0.73 sec., Time.max = 0.81 sec.
Time.total = 7.42 sec.
请按任意键继续. . . 
